WARNING: for repeatability, setting FPU to use double precision
============================[ Problem Statistics ]=============================
|                                                                             |
|  Number of variables:           100                                         |
|  Number of clauses:             449                                         |
|  Parse time:                   0.00 s                                       |
|  Eliminated clauses:           0.00 Mb                                      |
|  Simplification time:          0.00 s                                       |
|                                                                             |
============================[ Search Statistics ]==============================
| Conflicts |          ORIGINAL         |          LEARNT          | Progress |
|           |    Vars  Clauses Literals |    Limit  Clauses Lit/Cl |          |
===============================================================================
|       100 |      99      442     1326 |      162      100      7 |  0.010 % |
===============================================================================
restarts              : 2
conflicts             : 111            (45604 /sec)
decisions             : 142            (0.00 % random) (58340 /sec)
propagations          : 2247           (923172 /sec)
conflict literals     : 804            (10.27 % deleted)
Memory used           : 13.00 MB
CPU time              : 0.002434 s

SATISFIABLE
